p edge 200 651
e 1 2 1
e 1 200 1
e 1 3 1
e 1 199 1
e 1 121 1
e 1 197 1
e 1 170 1
e 2 3 1
e 2 4 1
e 2 200 1
e 2 182 1
e 2 123 1
e 2 136 1
e 2 185 1
e 3 4 1
e 3 5 1
e 3 55 1
e 4 5 1
e 4 6 1
e 4 63 1
e 4 180 1
e 4 50 1
e 4 67 1
e 4 98 1
e 5 6 1
e 5 7 1
e 5 146 1
e 6 7 1
e 6 8 1
e 6 159 1
e 6 93 1
e 6 105 1
e 7 8 1
e 7 9 1
e 7 98 1
e 7 27 1
e 7 45 1
e 8 9 1
e 8 10 1
e 8 113 1
e 8 18 1
e 9 10 1
e 9 11 1
e 9 188 1
e 10 11 1
e 10 12 1
e 10 119 1
e 10 75 1
e 10 175 1
e 11 12 1
e 11 13 1
e 11 125 1
e 11 46 1
e 11 54 1
e 12 13 1
e 12 14 1
e 13 14 1
e 13 15 1
e 13 168 1
e 13 24 1
e 14 15 1
e 14 16 1
e 14 67 1
e 14 23 1
e 15 16 1
e 15 17 1
e 15 98 1
e 15 162 1
e 16 17 1
e 16 18 1
e 16 44 1
e 16 77 1
e 16 134 1
e 17 18 1
e 17 19 1
e 17 129 1
e 17 132 1
e 18 19 1
e 18 20 1
e 18 170 1
e 18 51 1
e 18 101 1
e 18 160 1
e 18 194 1
e 19 20 1
e 19 21 1
e 19 157 1
e 19 128 1
e 19 78 1
e 20 21 1
e 20 22 1
e 20 123 1
e 20 117 1
e 21 22 1
e 21 23 1
e 22 23 1
e 22 24 1
e 22 103 1
e 22 156 1
e 23 24 1
e 23 25 1
e 23 183 1
e 24 25 1
e 24 26 1
e 24 58 1
e 24 31 1
e 25 26 1
e 25 27 1
e 25 44 1
e 25 158 1
e 25 191 1
e 26 27 1
e 26 28 1
e 26 187 1
e 26 99 1
e 26 51 1
e 26 157 1
e 27 28 1
e 27 29 1
e 27 138 1
e 27 72 1
e 27 112 1
e 28 29 1
e 28 30 1
e 28 167 1
e 29 30 1
e 29 31 1
e 29 151 1
e 29 54 1
e 29 168 1
e 30 31 1
e 30 32 1
e 30 48 1
e 31 32 1
e 31 33 1
e 32 33 1
e 32 34 1
e 32 188 1
e 32 41 1
e 32 130 1
e 33 34 1
e 33 35 1
e 33 92 1
e 33 52 1
e 33 127 1
e 34 35 1
e 34 36 1
e 34 180 1
e 35 36 1
e 35 37 1
e 35 157 1
e 35 56 1
e 35 91 1
e 35 126 1
e 36 37 1
e 36 38 1
e 36 165 1
e 37 38 1
e 37 39 1
e 37 158 1
e 38 39 1
e 38 40 1
e 38 124 1
e 39 40 1
e 39 41 1
e 39 59 1
e 39 75 1
e 39 183 1
e 40 41 1
e 40 42 1
e 40 171 1
e 40 88 1
e 40 159 1
e 41 42 1
e 41 43 1
e 41 148 1
e 42 43 1
e 42 44 1
e 42 117 1
e 42 95 1
e 42 175 1
e 43 44 1
e 43 45 1
e 43 48 1
e 43 136 1
e 44 45 1
e 44 46 1
e 44 114 1
e 44 193 1
e 45 46 1
e 45 47 1
e 46 47 1
e 46 48 1
e 46 189 1
e 46 64 1
e 46 116 1
e 46 119 1
e 46 172 1
e 47 48 1
e 47 49 1
e 47 168 1
e 47 121 1
e 48 49 1
e 48 50 1
e 48 164 1
e 49 50 1
e 49 51 1
e 49 158 1
e 49 149 1
e 49 184 1
e 50 51 1
e 50 52 1
e 50 84 1
e 50 145 1
e 51 52 1
e 51 53 1
e 52 53 1
e 52 54 1
e 52 74 1
e 53 54 1
e 53 55 1
e 53 152 1
e 53 108 1
e 53 116 1
e 53 186 1
e 54 55 1
e 54 56 1
e 54 125 1
e 54 122 1
e 55 56 1
e 55 57 1
e 55 101 1
e 56 57 1
e 56 58 1
e 56 159 1
e 56 184 1
e 57 58 1
e 57 59 1
e 57 155 1
e 58 59 1
e 58 60 1
e 58 136 1
e 58 129 1
e 58 76 1
e 59 60 1
e 59 61 1
e 59 150 1
e 59 175 1
e 59 173 1
e 59 187 1
e 60 61 1
e 60 62 1
e 60 197 1
e 60 87 1
e 61 62 1
e 61 63 1
e 62 63 1
e 62 64 1
e 62 82 1
e 63 64 1
e 63 65 1
e 63 110 1
e 63 148 1
e 64 65 1
e 64 66 1
e 64 87 1
e 64 110 1
e 64 120 1
e 64 129 1
e 65 66 1
e 65 67 1
e 65 195 1
e 65 165 1
e 66 67 1
e 66 68 1
e 66 174 1
e 67 68 1
e 67 69 1
e 67 189 1
e 68 69 1
e 68 70 1
e 68 135 1
e 69 70 1
e 69 71 1
e 69 168 1
e 70 71 1
e 70 72 1
e 70 75 1
e 70 183 1
e 71 72 1
e 71 73 1
e 71 178 1
e 72 73 1
e 72 74 1
e 72 86 1
e 73 74 1
e 73 75 1
e 73 156 1
e 73 167 1
e 74 75 1
e 74 76 1
e 74 140 1
e 75 76 1
e 75 77 1
e 75 139 1
e 76 77 1
e 76 78 1
e 77 78 1
e 77 79 1
e 77 134 1
e 78 79 1
e 78 80 1
e 78 164 1
e 78 136 1
e 79 80 1
e 79 81 1
e 80 81 1
e 80 82 1
e 80 149 1
e 80 114 1
e 80 109 1
e 81 82 1
e 81 83 1
e 82 83 1
e 82 84 1
e 82 103 1
e 82 126 1
e 83 84 1
e 83 85 1
e 83 132 1
e 84 85 1
e 84 86 1
e 84 122 1
e 84 151 1
e 85 86 1
e 85 87 1
e 85 137 1
e 86 87 1
e 86 88 1
e 87 88 1
e 87 89 1
e 87 144 1
e 88 89 1
e 88 90 1
e 88 131 1
e 89 90 1
e 89 91 1
e 89 121 1
e 90 91 1
e 90 92 1
e 91 92 1
e 91 93 1
e 92 93 1
e 92 94 1
e 92 164 1
e 93 94 1
e 93 95 1
e 93 98 1
e 94 95 1
e 94 96 1
e 95 96 1
e 95 97 1
e 96 97 1
e 96 98 1
e 96 115 1
e 97 98 1
e 97 99 1
e 97 134 1
e 97 131 1
e 98 99 1
e 98 100 1
e 99 100 1
e 99 101 1
e 99 149 1
e 100 101 1
e 100 102 1
e 100 119 1
e 101 102 1
e 101 103 1
e 101 121 1
e 102 103 1
e 102 104 1
e 102 148 1
e 103 104 1
e 103 105 1
e 104 105 1
e 104 106 1
e 104 144 1
e 104 179 1
e 104 123 1
e 104 140 1
e 104 197 1
e 105 106 1
e 105 107 1
e 105 132 1
e 105 123 1
e 106 107 1
e 106 108 1
e 106 120 1
e 106 169 1
e 107 108 1
e 107 109 1
e 107 155 1
e 107 196 1
e 108 109 1
e 108 110 1
e 109 110 1
e 109 111 1
e 110 111 1
e 110 112 1
e 111 112 1
e 111 113 1
e 111 169 1
e 111 162 1
e 112 113 1
e 112 114 1
e 113 114 1
e 113 115 1
e 113 130 1
e 113 165 1
e 114 115 1
e 114 116 1
e 114 192 1
e 115 116 1
e 115 117 1
e 115 145 1
e 116 117 1
e 116 118 1
e 117 118 1
e 117 119 1
e 117 150 1
e 118 119 1
e 118 120 1
e 119 120 1
e 119 121 1
e 119 130 1
e 120 121 1
e 120 122 1
e 120 170 1
e 121 122 1
e 121 123 1
e 122 123 1
e 122 124 1
e 122 128 1
e 123 124 1
e 123 125 1
e 124 125 1
e 124 126 1
e 124 198 1
e 125 126 1
e 125 127 1
e 125 134 1
e 125 150 1
e 126 127 1
e 126 128 1
e 127 128 1
e 127 129 1
e 127 159 1
e 128 129 1
e 128 130 1
e 128 183 1
e 128 131 1
e 128 144 1
e 129 130 1
e 129 131 1
e 130 131 1
e 130 132 1
e 130 154 1
e 131 132 1
e 131 133 1
e 132 133 1
e 132 134 1
e 132 175 1
e 132 164 1
e 133 134 1
e 133 135 1
e 133 137 1
e 133 195 1
e 134 135 1
e 134 136 1
e 134 157 1
e 135 136 1
e 135 137 1
e 135 139 1
e 136 137 1
e 136 138 1
e 136 143 1
e 137 138 1
e 137 139 1
e 137 169 1
e 138 139 1
e 138 140 1
e 138 177 1
e 138 166 1
e 139 140 1
e 139 141 1
e 139 173 1
e 140 141 1
e 140 142 1
e 140 152 1
e 140 176 1
e 140 197 1
e 141 142 1
e 141 143 1
e 142 143 1
e 142 144 1
e 142 162 1
e 142 166 1
e 142 154 1
e 143 144 1
e 143 145 1
e 143 163 1
e 144 145 1
e 144 146 1
e 145 146 1
e 145 147 1
e 146 147 1
e 146 148 1
e 146 164 1
e 146 180 1
e 147 148 1
e 147 149 1
e 147 191 1
e 147 158 1
e 147 180 1
e 148 149 1
e 148 150 1
e 149 150 1
e 149 151 1
e 149 165 1
e 150 151 1
e 150 152 1
e 151 152 1
e 151 153 1
e 151 198 1
e 152 153 1
e 152 154 1
e 152 197 1
e 152 167 1
e 153 154 1
e 153 155 1
e 153 159 1
e 153 200 1
e 154 155 1
e 154 156 1
e 154 179 1
e 154 182 1
e 155 156 1
e 155 157 1
e 155 170 1
e 156 157 1
e 156 158 1
e 157 158 1
e 157 159 1
e 157 169 1
e 158 159 1
e 158 160 1
e 159 160 1
e 159 161 1
e 160 161 1
e 160 162 1
e 160 185 1
e 161 162 1
e 161 163 1
e 161 174 1
e 161 181 1
e 162 163 1
e 162 164 1
e 163 164 1
e 163 165 1
e 164 165 1
e 164 166 1
e 165 166 1
e 165 167 1
e 166 167 1
e 166 168 1
e 167 168 1
e 167 169 1
e 168 169 1
e 168 170 1
e 168 195 1
e 168 179 1
e 169 170 1
e 169 171 1
e 170 171 1
e 170 172 1
e 170 179 1
e 171 172 1
e 171 173 1
e 171 187 1
e 172 173 1
e 172 174 1
e 173 174 1
e 173 175 1
e 173 192 1
e 174 175 1
e 174 176 1
e 174 177 1
e 175 176 1
e 175 177 1
e 176 177 1
e 176 178 1
e 177 178 1
e 177 179 1
e 177 185 1
e 177 189 1
e 178 179 1
e 178 180 1
e 179 180 1
e 179 181 1
e 180 181 1
e 180 182 1
e 181 182 1
e 181 183 1
e 181 196 1
e 181 187 1
e 182 183 1
e 182 184 1
e 183 184 1
e 183 185 1
e 184 185 1
e 184 186 1
e 185 186 1
e 185 187 1
e 186 187 1
e 186 188 1
e 187 188 1
e 187 189 1
e 188 189 1
e 188 190 1
e 189 190 1
e 189 191 1
e 190 191 1
e 190 192 1
e 191 192 1
e 191 193 1
e 192 193 1
e 192 194 1
e 193 194 1
e 193 195 1
e 194 195 1
e 194 196 1
e 195 196 1
e 195 197 1
e 196 197 1
e 196 198 1
e 197 198 1
e 197 199 1
e 198 199 1
e 198 200 1
e 199 200 1